50
21949

374 267
716 465
461 366
294 994
32 581
318 729
530 359
254 628
820 668
628 222
525 59
280 399
883 633
248 544
799 584
78 32
525 484
410 503
333 18
591 52
536 394
110 554
704 692
673 270
570 664
860 555
6 288
336 778
941 395
770 242
961 648
352 455
2 595
205 75
902 78
110 98
712 230
165 633
985 660
246 692
267 995
218 338
681 677
914 482
486 884
163 146
740 974
426 297
398 324
606 59
